(set-logic QF_LIA)
(set-info :ran/ran2.smt2)
(set-info :smt-lib-version 2.0)
(declare-fun x1 () Int)
(declare-fun x2 () Int)
(declare-fun x3 () Int)
(assert (<= (+ (* (- 9) x1) (* (- 9) x2) (* (- 1) x3) ) 62))
(assert (<= (+ (* (- 4) x1) (* (- 1) x2) (* (- 5) x3) ) (- 232)))
(assert (<= (+ (* (- 5) x1) (* 1 x2) (* 4 x3) ) 130))
(assert (<= (+ (* (- 3) x1) (* (- 3) x2) (* (- 6) x3) ) 21))
(assert (<= (+ (* (- 8) x1) (* (- 7) x2) (* 3 x3) ) 151))
(assert (<= (+ (* (- 7) x1) (* 1 x2) (* (- 5) x3) ) 224))
(assert (<= (+ (* 1 x1) (* 0 x2) (* 0 x3) ) 251))
(assert (<= (+ (* (- 1) x1) (* 0 x2) (* 0 x3) ) 251))
(assert (<= (+ (* 0 x1) (* 1 x2) (* 0 x3) ) 251))
(assert (<= (+ (* 0 x1) (* (- 1) x2) (* 0 x3) ) 251))
(assert (<= (+ (* 0 x1) (* 0 x2) (* 1 x3) ) 251))
(assert (<= (+ (* 0 x1) (* 0 x2) (* (- 1) x3) ) 251))
